0 0
3 5
2.5 9
48 16
48 17
69 16
70 16
64 13
3 -22
2.5 1
-13 11.5
-20 45
-9 52
-8.5 53
-8 52
2 2
-2 9
-10 20
-20 19
-15 -21
-5 -9
-4.5 -9
-52 -36
-53 -36
0 0.01
-30 -18
-51 -35
81 9
84 -99
82 -6
40 -12
50 -7
51 -8
63 -17
45 -1
54 8.5
29 4
21 3
22 2
39 -3
39.5 -3
40 -11
28 -2
24 -18
24 -19